NAME: n500q25J.tsp, 500 nodes, semilla 999
COMMENT: Problema aleatorio de norma euclidea
DIMENSION: 500
CAPACITY: 25
EDGE_WEIGHT_TYPE: EUC_2D
NODE_COORD_SECTION
1   0.0000   0.0000
2 -258.0000 -199.0000
3 244.0000 486.0000
4 -59.0000 464.0000
5 -209.0000 245.0000
6 -191.0000 -274.0000
7  68.0000 436.0000
8 490.0000 -252.0000
9 -97.0000  72.0000
10 -32.0000 165.0000
11 -330.0000 146.0000
12 353.0000 302.0000
13 -362.0000 224.0000
14 -270.0000 -430.0000
15 414.0000 421.0000
16 -237.0000 -276.0000
17 106.0000   3.0000
18 360.0000 -189.0000
19 371.0000 269.0000
20 390.0000 421.0000
21 173.0000 -359.0000
22 -149.0000 -267.0000
23 -15.0000 478.0000
24 352.0000  15.0000
25 -444.0000 -29.0000
26 -341.0000 -49.0000
27 440.0000 136.0000
28 480.0000 -228.0000
29 -447.0000 -367.0000
30 -127.0000 -406.0000
31  51.0000 -296.0000
32 -178.0000 120.0000
33 -294.0000 -294.0000
34 -394.0000 -465.0000
35 -247.0000 261.0000
36 254.0000 117.0000
37 -353.0000 -497.0000
38 353.0000  89.0000
39 -169.0000 -69.0000
40 257.0000 -377.0000
41 -272.0000 464.0000
42 116.0000 126.0000
43 220.0000 -141.0000
44 483.0000 425.0000
45 284.0000 -90.0000
46 -352.0000 275.0000
47 -108.0000 -175.0000
48 118.0000 134.0000
49 459.0000 -408.0000
50 -467.0000 453.0000
51 -274.0000 -355.0000
52 173.0000 200.0000
53 198.0000 103.0000
54 395.0000 -272.0000
55 479.0000 -22.0000
56 -422.0000 308.0000
57 185.0000 385.0000
58 100.0000 -188.0000
59 380.0000 -78.0000
60 130.0000 -420.0000
61  40.0000 -359.0000
62 224.0000 107.0000
63 -469.0000 240.0000
64 307.0000  20.0000
65 -257.0000 422.0000
66 143.0000 -372.0000
67 459.0000 -315.0000
68 -419.0000 126.0000
69 -208.0000 -432.0000
70 234.0000 243.0000
71 399.0000 348.0000
72 -50.0000 -386.0000
73 145.0000 -42.0000
74 315.0000 -217.0000
75 119.0000 477.0000
76 -252.0000 -242.0000
77  11.0000  34.0000
78 408.0000 475.0000
79  87.0000 486.0000
80 303.0000  75.0000
81 149.0000 418.0000
82 308.0000 246.0000
83 182.0000 189.0000
84 -68.0000 -218.0000
85 311.0000  25.0000
86 462.0000  42.0000
87 432.0000 -153.0000
88 -437.0000 285.0000
89 -425.0000 333.0000
90 336.0000 -368.0000
91 -227.0000 221.0000
92 -79.0000 -249.0000
93 -161.0000 295.0000
94 417.0000 115.0000
95 -184.0000 338.0000
96  39.0000 259.0000
97 -284.0000 431.0000
98 307.0000 -391.0000
99  32.0000 -490.0000
100 -294.0000 -438.0000
101 -311.0000 461.0000
102 382.0000 189.0000
103 -53.0000  61.0000
104 -135.0000 -432.0000
105 355.0000 -104.0000
106 -389.0000 375.0000
107 206.0000 -71.0000
108 490.0000  87.0000
109 146.0000 -206.0000
110 -430.0000 -349.0000
111 -498.0000 -44.0000
112 -290.0000 -428.0000
113 -298.0000 -462.0000
114 293.0000 142.0000
115 -326.0000 -153.0000
116 -128.0000 -104.0000
117 472.0000  89.0000
118 171.0000 -132.0000
119 -322.0000 -114.0000
120 -439.0000 -320.0000
121 116.0000 -114.0000
122 -235.0000 -156.0000
123 -118.0000 -311.0000
124 -145.0000  29.0000
125   6.0000 291.0000
126 -100.0000  58.0000
127  65.0000 -260.0000
128 -166.0000 -483.0000
129 -190.0000 -19.0000
130 -407.0000 -380.0000
131 370.0000 -360.0000
132 -275.0000 417.0000
133 -278.0000 287.0000
134 412.0000 -154.0000
135 194.0000 -472.0000
136 -85.0000 -355.0000
137 -364.0000 -224.0000
138 -402.0000 -473.0000
139 -367.0000 365.0000
140 -97.0000 347.0000
141 170.0000 -224.0000
142 311.0000 -335.0000
143 489.0000 -293.0000
144 115.0000 -200.0000
145 -272.0000 -73.0000
146 176.0000 477.0000
147 218.0000 178.0000
148  50.0000 493.0000
149 -47.0000 127.0000
150 330.0000 -220.0000
151 -336.0000 277.0000
152 -322.0000 151.0000
153 -254.0000 197.0000
154 245.0000 263.0000
155 -413.0000 134.0000
156 -149.0000 -225.0000
157 -90.0000 403.0000
158 -422.0000 -312.0000
159 -410.0000 -120.0000
160 -110.0000 163.0000
161 360.0000 241.0000
162 186.0000 -41.0000
163 -319.0000  60.0000
164 423.0000  -5.0000
165 -108.0000  71.0000
166 -212.0000 446.0000
167  87.0000 -339.0000
168 395.0000 -75.0000
169 423.0000 477.0000
170 -445.0000 246.0000
171 240.0000 483.0000
172 -133.0000  90.0000
173 409.0000 483.0000
174 421.0000 231.0000
175 -216.0000 -404.0000
176 -89.0000 -217.0000
177 -478.0000 178.0000
178 102.0000 -29.0000
179 -18.0000 -338.0000
180 -93.0000 301.0000
181 -53.0000  49.0000
182  59.0000 -260.0000
183 -242.0000 -178.0000
184 -366.0000 433.0000
185 -143.0000 -432.0000
186 -289.0000 -446.0000
187 384.0000 213.0000
188 446.0000 500.0000
189 -395.0000 -207.0000
190 434.0000 -18.0000
191 -449.0000 -499.0000
192 -207.0000 412.0000
193 -217.0000 458.0000
194 117.0000 -231.0000
195 -213.0000 -327.0000
196 -105.0000 -479.0000
197  46.0000 -84.0000
198 -177.0000 142.0000
199 111.0000 -318.0000
200 -15.0000 105.0000
201  -7.0000 191.0000
202 -390.0000 387.0000
203 -53.0000 -102.0000
204 -428.0000 253.0000
205 345.0000 -268.0000
206 -385.0000 -19.0000
207 -261.0000 325.0000
208 104.0000 465.0000
209 -307.0000 -39.0000
210 -474.0000 -271.0000
211 -249.0000 -141.0000
212 266.0000 -264.0000
213  29.0000 -311.0000
214 -369.0000 -445.0000
215 -127.0000 -296.0000
216  67.0000 -354.0000
217 -81.0000 -311.0000
218 484.0000 299.0000
219 -78.0000 -36.0000
220 -210.0000 -204.0000
221 461.0000 468.0000
222 -164.0000 -309.0000
223 261.0000  36.0000
224 -26.0000 -136.0000
225 -51.0000 264.0000
226 -198.0000 347.0000
227 434.0000 231.0000
228 157.0000  66.0000
229 -280.0000 -153.0000
230 -21.0000 -299.0000
231 -92.0000 201.0000
232 -250.0000 496.0000
233  12.0000 334.0000
234 -492.0000 -39.0000
235 -405.0000 -157.0000
236 364.0000 -382.0000
237 -462.0000  25.0000
238 -86.0000 -375.0000
239 -141.0000 217.0000
240 321.0000 335.0000
241  -1.0000 -130.0000
242  56.0000 -298.0000
243 -308.0000 -54.0000
244  32.0000  63.0000
245 -377.0000 494.0000
246 469.0000 -46.0000
247 376.0000 492.0000
248 -69.0000  62.0000
249 -210.0000 327.0000
250 498.0000 164.0000
251 -72.0000  46.0000
252 -347.0000 407.0000
253 302.0000 356.0000
254 -232.0000 487.0000
255 -353.0000 228.0000
256 -447.0000 271.0000
257 276.0000 443.0000
258 273.0000  67.0000
259 213.0000 -130.0000
260 -158.0000  86.0000
261  -6.0000 -34.0000
262 106.0000 -493.0000
263 269.0000 -23.0000
264  65.0000 -206.0000
265 -242.0000  99.0000
266 144.0000 -411.0000
267 -129.0000 397.0000
268 -262.0000 123.0000
269 234.0000 412.0000
270 495.0000 -203.0000
271 263.0000 -491.0000
272 103.0000 336.0000
273 354.0000 112.0000
274 148.0000  -6.0000
275 -179.0000 250.0000
276 -205.0000 -304.0000
277 -462.0000  -8.0000
278  77.0000 -25.0000
279 -53.0000 -400.0000
280 -136.0000 -430.0000
281 173.0000 -62.0000
282  75.0000 -268.0000
283 282.0000 264.0000
284 -277.0000 462.0000
285 494.0000   2.0000
286 -401.0000 195.0000
287 253.0000 -492.0000
288 194.0000 -303.0000
289  99.0000 396.0000
290 -286.0000 227.0000
291 100.0000 111.0000
292 -339.0000 189.0000
293 -363.0000 -469.0000
294 -332.0000 328.0000
295 -166.0000 386.0000
296 -470.0000 311.0000
297 434.0000 -403.0000
298  30.0000 -487.0000
299  79.0000 327.0000
300 -498.0000 320.0000
301  -5.0000 396.0000
302 -313.0000 440.0000
303 -80.0000 -246.0000
304  75.0000 492.0000
305 -250.0000 -489.0000
306 179.0000 -442.0000
307 -462.0000 483.0000
308 229.0000 365.0000
309 196.0000 167.0000
310 343.0000 348.0000
311 186.0000 -402.0000
312 -179.0000 -95.0000
313 460.0000 291.0000
314 -81.0000 -333.0000
315  16.0000 275.0000
316  -2.0000 168.0000
317 327.0000 -204.0000
318 312.0000 -51.0000
319 239.0000 -377.0000
320 250.0000 127.0000
321 -398.0000 370.0000
322 390.0000 -30.0000
323 -313.0000 -448.0000
324 -218.0000 296.0000
325  32.0000 181.0000
326 -25.0000 -220.0000
327 -140.0000 -115.0000
328 -479.0000 -256.0000
329 317.0000  92.0000
330 294.0000 356.0000
331 -324.0000 -52.0000
332 385.0000 143.0000
333 299.0000 -438.0000
334 -103.0000 -46.0000
335 -284.0000 -39.0000
336 246.0000 -21.0000
337 329.0000  44.0000
338 372.0000 496.0000
339 164.0000 -26.0000
340 389.0000 254.0000
341 175.0000 -452.0000
342 308.0000 -352.0000
343 -458.0000 -99.0000
344 -329.0000 -45.0000
345 356.0000  73.0000
346 348.0000 -214.0000
347 475.0000 -112.0000
348 400.0000 421.0000
349 -64.0000 -484.0000
350  43.0000 -193.0000
351 -314.0000 234.0000
352 152.0000 160.0000
353 122.0000 -235.0000
354 484.0000 -408.0000
355 -49.0000 484.0000
356 -315.0000 -218.0000
357 -357.0000 404.0000
358 261.0000 400.0000
359 -247.0000 384.0000
360 102.0000 172.0000
361  73.0000 -303.0000
362 449.0000 358.0000
363 197.0000 257.0000
364 498.0000 146.0000
365 245.0000 -124.0000
366 454.0000 284.0000
367 -147.0000 -319.0000
368 -225.0000  54.0000
369 -147.0000  -3.0000
370 -433.0000 -470.0000
371  97.0000 -102.0000
372 484.0000 -375.0000
373 130.0000 -418.0000
374 -373.0000  68.0000
375 -154.0000 -154.0000
376 -96.0000  -7.0000
377 -285.0000 -412.0000
378  68.0000 287.0000
379 -310.0000 -10.0000
380 -304.0000 197.0000
381 377.0000 322.0000
382 -223.0000 209.0000
383 -247.0000 -145.0000
384 484.0000 -219.0000
385 -390.0000 365.0000
386  28.0000 470.0000
387 483.0000  40.0000
388 234.0000 -433.0000
389 -146.0000 -159.0000
390 -395.0000 -429.0000
391 -229.0000 109.0000
392 -46.0000 -477.0000
393 -252.0000 -398.0000
394 -147.0000 -89.0000
395 -134.0000 104.0000
396  33.0000 -272.0000
397 -226.0000 -308.0000
398 -236.0000 293.0000
399 -14.0000 387.0000
400 -329.0000 -340.0000
401 -303.0000 116.0000
402 -12.0000 228.0000
403 355.0000 -417.0000
404 -432.0000 360.0000
405 406.0000 101.0000
406 -196.0000 182.0000
407 314.0000  79.0000
408 -378.0000 369.0000
409 -453.0000 -244.0000
410 -138.0000 453.0000
411 -227.0000 389.0000
412 -194.0000 -375.0000
413 -213.0000 -244.0000
414 112.0000 -95.0000
415 -16.0000 -83.0000
416 215.0000 -180.0000
417 -366.0000 267.0000
418 -329.0000 -333.0000
419 259.0000 -27.0000
420 446.0000 260.0000
421 -102.0000 -21.0000
422 471.0000 293.0000
423 321.0000 -332.0000
424 -396.0000 109.0000
425 240.0000 225.0000
426 -212.0000 256.0000
427 -13.0000 -48.0000
428 102.0000 -23.0000
429 -16.0000 -23.0000
430 389.0000  -3.0000
431 315.0000 165.0000
432 -444.0000 -179.0000
433 389.0000 225.0000
434 244.0000 308.0000
435 106.0000 -27.0000
436 315.0000 258.0000
437 -342.0000  17.0000
438 495.0000 184.0000
439  10.0000 402.0000
440 316.0000 -411.0000
441 172.0000 114.0000
442 202.0000 249.0000
443 220.0000 -258.0000
444 266.0000 -320.0000
445 -315.0000 -20.0000
446 -430.0000 105.0000
447  75.0000 164.0000
448 391.0000 263.0000
449 146.0000 -210.0000
450 -21.0000 -441.0000
451 -361.0000 -348.0000
452 184.0000 315.0000
453 -74.0000 458.0000
454 172.0000 -281.0000
455 -340.0000 -413.0000
456 -267.0000 394.0000
457 365.0000 -242.0000
458 382.0000 248.0000
459 249.0000 185.0000
460 -334.0000  61.0000
461 354.0000  84.0000
462 272.0000 -44.0000
463 -271.0000 489.0000
464 -24.0000 -55.0000
465 -463.0000  -6.0000
466 -442.0000 -356.0000
467 -100.0000 396.0000
468 -452.0000 431.0000
469 -306.0000 -69.0000
470 -27.0000 -351.0000
471 383.0000 -466.0000
472 -145.0000  77.0000
473 -404.0000 349.0000
474 408.0000 -44.0000
475 -320.0000  88.0000
476 461.0000 -278.0000
477 -25.0000 -231.0000
478 -250.0000  96.0000
479 -197.0000 260.0000
480 -250.0000 -291.0000
481 -285.0000 -202.0000
482 -166.0000 442.0000
483  64.0000 364.0000
484 464.0000 -194.0000
485 170.0000 -234.0000
486 -294.0000 -384.0000
487 427.0000 -60.0000
488 403.0000 -309.0000
489 -215.0000  79.0000
490 377.0000 -337.0000
491 -278.0000 267.0000
492  67.0000 -235.0000
493 212.0000 -21.0000
494 437.0000 187.0000
495 195.0000 -322.0000
496 -214.0000 -175.0000
497 438.0000 -447.0000
498 -462.0000 419.0000
499 371.0000 -203.0000
500 -292.0000 -88.0000
DISPLAY_DATA_SECTION:
 1  250  250
 2  121  150
 3  372  493
 4  220  482
 5  145  372
 6  154  113
 7  284  468
 8  495  124
 9  201  286
10  234  332
11   85  323
12  426  401
13   69  362
14  115   35
15  457  460
16  131  112
17  303  251
18  430  155
19  435  384
20  445  460
21  336   70
22  175  116
23  242  489
24  426  257
25   28  235
26   79  225
27  470  318
28  490  136
29   26   66
30  186   47
31  275  102
32  161  310
33  103  103
34   53   17
35  126  380
36  377  308
37   73    1
38  426  294
39  165  215
40  378   61
41  114  482
42  308  313
43  360  179
44  491  462
45  392  205
46   74  387
47  196  162
48  309  317
49  479   46
50   16  476
51  113   72
52  336  350
53  349  301
54  447  114
55  489  239
56   39  404
57  342  442
58  300  156
59  440  211
60  315   40
61  270   70
62  362  303
63   15  370
64  403  260
65  121  461
66  321   64
67  479   92
68   40  313
69  146   34
70  367  371
71  449  424
72  225   57
73  322  229
74  407  141
75  309  488
76  124  129
77  255  267
78  454  487
79  293  493
80  401  287
81  324  459
82  404  373
83  341  344
84  216  141
85  405  262
86  481  271
87  466  173
88   31  392
89   37  416
90  418   66
91  136  360
92  210  125
93  169  397
94  458  307
95  158  419
96  269  379
97  108  465
98  403   54
99  266    5
100  103   31
101   94  480
102  441  344
103  223  280
104  182   34
105  427  198
106   55  437
107  353  214
108  495  293
109  323  147
110   35   75
111    1  228
112  105   36
113  101   19
114  396  321
115   87  173
116  186  198
117  486  294
118  335  184
119   89  193
120   30   90
121  308  193
122  132  172
123  191   94
124  177  264
125  253  395
126  200  279
127  282  120
128  167    8
129  155  240
130   46   60
131  435   70
132  112  458
133  111  393
134  456  173
135  347   14
136  207   72
137   68  138
138   49   13
139   66  432
140  201  423
141  335  138
142  405   82
143  494  103
144  307  150
145  114  213
146  338  488
147  359  339
148  275  496
149  226  313
150  415  140
151   82  388
152   89  325
153  123  348
154  372  381
155   43  317
156  175  137
157  205  451
158   39   94
159   45  190
160  195  331
161  430  370
162  343  229
163   90  280
164  461  247
165  196  285
166  144  473
167  293   80
168  447  212
169  461  488
170   27  373
171  370  491
172  183  295
173  454  491
174  460  365
175  142   48
176  205  141
177   11  339
178  301  235
179  241   81
180  203  400
181  223  274
182  279  120
183  129  161
184   67  466
185  178   34
186  105   27
187  442  356
188  473  500
189   52  146
190  467  241
191   25    0
192  146  456
193  141  479
194  308  134
195  143   86
196  197   10
197  273  208
198  161  321
199  305   91
200  242  302
201  246  345
202   55  443
203  223  199
204   36  376
205  422  116
206   57  240
207  119  412
208  302  482
209   96  230
210   13  114
211  125  179
212  383  118
213  264   94
214   65   27
215  186  102
216  283   73
217  209   94
218  492  399
219  211  232
220  145  148
221  480  484
222  168   95
223  380  268
224  237  182
225  224  382
226  151  423
227  467  365
228  328  283
229  110  173
230  239  100
231  204  350
232  125  498
233  256  417
234    4  230
235   47  171
236  432   59
237   19  262
238  207   62
239  179  358
240  410  417
241  249  185
242  278  101
243   96  223
244  266  281
245   61  497
246  484  227
247  438  496
248  215  281
249  145  413
250  499  332
251  214  273
252   76  453
253  401  428
254  134  493
255   73  364
256   26  385
257  388  471
258  386  283
259  356  185
260  171  293
261  247  233
262  303    3
263  384  238
264  282  147
265  129  299
266  322   44
267  185  448
268  119  311
269  367  456
270  497  148
271  381    4
272  301  418
273  427  306
274  324  247
275  160  375
276  147   98
277   19  246
278  288  237
279  223   50
280  182   35
281  336  219
282  287  116
283  391  382
284  111  481
285  497  251
286   49  347
287  376    4
288  347   98
289  299  448
290  107  363
291  300  305
292   80  344
293   68   15
294   84  414
295  167  443
296   15  405
297  467   48
298  265    6
299  289  413
300    1  410
301  247  448
302   93  470
303  210  127
304  287  496
305  125    5
306  339   29
307   19  491
308  364  432
309  348  333
310  421  424
311  343   49
312  160  202
313  480  395
314  209   83
315  258  387
316  249  334
317  413  148
318  406  224
319  369   61
320  375  313
321   51  435
322  445  235
323   93   26
324  141  398
325  266  340
326  237  140
327  180  192
328   10  122
329  408  296
330  397  428
331   88  224
332  442  321
333  399   31
334  198  227
335  108  230
336  373  239
337  414  272
338  436  498
339  332  237
340  444  377
341  337   24
342  404   74
343   21  200
344   85  227
345  428  286
346  424  143
347  487  194
348  450  460
349  218    8
350  271  153
351   93  367
352  326  330
353  311  132
354  492   46
355  225  492
356   92  141
357   71  452
358  380  450
359  126  442
360  301  336
361  286   98
362  474  429
363  348  378
364  499  323
365  372  188
366  477  392
367  176   90
368  137  277
369  176  248
370   33   15
371  298  199
372  492   62
373  315   41
374   63  284
375  173  173
376  202  246
377  107   44
378  284  393
379   95  245
380   98  348
381  438  411
382  138  354
383  126  177
384  492  140
385   55  432
386  264  485
387  491  270
388  367   33
389  177  170
390   52   35
391  135  304
392  227   11
393  124   51
394  176  205
395  183  302
396  266  114
397  137   96
398  132  396
399  243  443
400   85   80
401   98  308
402  244  364
403  427   41
404   34  430
405  453  300
406  152  341
407  407  289
408   61  434
409   23  128
410  181  476
411  136  444
412  153   62
413  143  128
414  306  202
415  242  208
416  357  160
417   67  383
418   85   83
419  379  236
420  473  380
421  199  239
422  485  396
423  410   84
424   52  304
425  370  362
426  144  378
427  243  226
428  301  238
429  242  238
430  444  248
431  407  332
432   28  160
433  444  362
434  372  404
435  303  236
436  407  379
437   79  258
438  497  342
439  255  451
440  408   44
441  336  307
442  351  374
443  360  121
444  383   90
445   92  240
446   35  302
447  287  332
448  445  381
449  323  145
450  239   29
451   69   76
452  342  407
453  213  479
454  336  109
455   80   43
456  116  447
457  432  129
458  441  374
459  374  342
460   83  280
461  427  292
462  386  228
463  114  494
464  238  222
465   18  247
466   29   72
467  200  448
468   24  465
469   97  215
470  236   74
471  441   17
472  177  288
473   48  424
474  454  228
475   90  294
476  480  111
477  237  134
478  125  298
479  151  380
480  125  104
481  107  149
482  167  471
483  282  432
484  482  153
485  335  133
486  103   58
487  463  220
488  451   95
489  142  289
490  438   81
491  111  383
492  283  132
493  356  239
494  468  343
495  347   89
496  143  162
497  469   26
498   19  459
499  435  148
500  104  206
DEMAND_SECTION
1 -8
2 0
3 6
4 -5
5 8
6 -5
7 0
8 3
9 -9
10 2
11 4
12 0
13 -1
14 6
15 7
16 -6
17 -2
18 -1
19 7
20 6
21 9
22 6
23 3
24 -9
25 -9
26 6
27 6
28 4
29 2
30 1
31 -3
32 -5
33 7
34 -1
35 -3
36 1
37 10
38 0
39 -4
40 6
41 7
42 5
43 -6
44 0
45 2
46 -4
47 8
48 -2
49 -8
50 7
51 1
52 9
53 -7
54 5
55 2
56 4
57 10
58 -6
59 -3
60 -4
61 4
62 1
63 -3
64 -10
65 -6
66 -8
67 -10
68 -8
69 1
70 9
71 5
72 8
73 8
74 -1
75 -7
76 0
77 6
78 -6
79 1
80 3
81 -2
82 4
83 0
84 2
85 -7
86 -10
87 -4
88 5
89 -1
90 8
91 -5
92 7
93 8
94 0
95 5
96 -5
97 -4
98 -1
99 -7
100 -10
101 7
102 -2
103 -5
104 0
105 8
106 7
107 -3
108 7
109 3
110 6
111 -4
112 -8
113 -3
114 0
115 0
116 5
117 5
118 10
119 9
120 9
121 -6
122 1
123 -4
124 -3
125 -5
126 4
127 -3
128 1
129 -9
130 -7
131 4
132 0
133 -3
134 0
135 -2
136 -6
137 6
138 0
139 0
140 -3
141 -8
142 8
143 1
144 1
145 -2
146 0
147 0
148 -1
149 -3
150 -2
151 6
152 -6
153 -10
154 -8
155 3
156 5
157 -9
158 4
159 10
160 10
161 -4
162 -8
163 6
164 9
165 9
166 -8
167 4
168 -9
169 3
170 -7
171 -3
172 -6
173 -5
174 -2
175 9
176 9
177 6
178 -2
179 2
180 1
181 -8
182 -3
183 6
184 3
185 7
186 1
187 0
188 9
189 2
190 0
191 5
192 10
193 5
194 0
195 -4
196 -4
197 -8
198 -3
199 -4
200 -1
201 7
202 -9
203 -3
204 -6
205 -10
206 0
207 2
208 -6
209 -5
210 9
211 -2
212 9
213 -10
214 3
215 5
216 2
217 3
218 8
219 10
220 9
221 3
222 -1
223 1
224 5
225 -7
226 9
227 2
228 10
229 -8
230 0
231 3
232 7
233 -5
234 -6
235 -9
236 -2
237 8
238 -3
239 0
240 6
241 -8
242 -8
243 8
244 8
245 4
246 -6
247 -1
248 -3
249 0
250 -9
251 -10
252 -4
253 4
254 3
255 6
256 -4
257 7
258 -4
259 -3
260 -5
261 7
262 5
263 0
264 -1
265 -7
266 -2
267 9
268 5
269 -4
270 -10
271 -5
272 -4
273 1
274 7
275 0
276 5
277 -3
278 2
279 -8
280 2
281 -1
282 0
283 0
284 0
285 1
286 -3
287 0
288 2
289 5
290 -10
291 4
292 -2
293 2
294 4
295 5
296 -6
297 7
298 8
299 -9
300 -3
301 7
302 -4
303 0
304 1
305 4
306 8
307 6
308 4
309 -5
310 6
311 0
312 -2
313 4
314 8
315 2
316 -6
317 9
318 -7
319 -3
320 0
321 2
322 8
323 5
324 -7
325 -7
326 -3
327 -7
328 -4
329 -6
330 -5
331 -5
332 -9
333 -10
334 -4
335 -2
336 -9
337 -7
338 0
339 9
340 4
341 -10
342 3
343 9
344 6
345 -8
346 -3
347 7
348 0
349 5
350 -4
351 -4
352 6
353 -2
354 -2
355 0
356 7
357 -8
358 -7
359 8
360 -2
361 -7
362 1
363 6
364 -5
365 -1
366 -1
367 0
368 1
369 0
370 -2
371 -5
372 -6
373 -8
374 -3
375 -2
376 9
377 -9
378 3
379 -1
380 1
381 1
382 -2
383 -8
384 -3
385 6
386 -4
387 6
388 -1
389 -10
390 -5
391 -7
392 -7
393 -8
394 1
395 0
396 3
397 5
398 -8
399 -2
400 9
401 6
402 -5
403 0
404 2
405 4
406 9
407 5
408 -3
409 -8
410 3
411 7
412 -4
413 -8
414 0
415 6
416 -3
417 1
418 -2
419 -5
420 1
421 -6
422 0
423 -5
424 -4
425 9
426 1
427 8
428 -3
429 6
430 5
431 -1
432 -4
433 5
434 4
435 -8
436 3
437 5
438 2
439 -5
440 -8
441 1
442 -1
443 -10
444 0
445 -10
446 3
447 6
448 0
449 9
450 -2
451 9
452 -4
453 -3
454 8
455 0
456 0
457 0
458 0
459 -2
460 3
461 10
462 -2
463 5
464 2
465 4
466 9
467 -3
468 -6
469 8
470 -2
471 -2
472 2
473 -5
474 -10
475 -5
476 -6
477 -6
478 -9
479 -7
480 1
481 2
482 6
483 0
484 6
485 -3
486 5
487 6
488 -1
489 -3
490 8
491 -8
492 5
493 6
494 4
495 9
496 -8
497 2
498 -7
499 -4
500 -1
EOF